p edge 100 1485
e 1 4
e 1 6
e 1 14
e 1 16
e 1 19
e 1 20
e 1 21
e 1 23
e 1 25
e 1 27
e 1 29
e 1 30
e 1 34
e 1 35
e 1 36
e 1 37
e 1 41
e 1 43
e 1 47
e 1 49
e 1 50
e 1 53
e 1 57
e 1 62
e 1 63
e 1 64
e 1 69
e 1 71
e 1 78
e 1 81
e 1 83
e 1 84
e 1 89
e 1 90
e 1 92
e 1 94
e 1 100
e 2 3
e 2 8
e 2 9
e 2 10
e 2 19
e 2 23
e 2 24
e 2 27
e 2 29
e 2 31
e 2 46
e 2 48
e 2 53
e 2 54
e 2 59
e 2 61
e 2 69
e 2 75
e 2 78
e 2 81
e 2 86
e 2 88
e 2 97
e 2 98
e 3 8
e 3 13
e 3 16
e 3 18
e 3 21
e 3 32
e 3 33
e 3 34
e 3 43
e 3 45
e 3 47
e 3 49
e 3 50
e 3 54
e 3 55
e 3 62
e 3 64
e 3 74
e 3 79
e 3 86
e 3 87
e 3 88
e 3 94
e 3 95
e 3 100
e 4 9
e 4 11
e 4 20
e 4 21
e 4 25
e 4 26
e 4 28
e 4 30
e 4 33
e 4 39
e 4 44
e 4 49
e 4 57
e 4 58
e 4 63
e 4 65
e 4 66
e 4 69
e 4 80
e 4 82
e 4 83
e 4 86
e 4 87
e 4 94
e 5 10
e 5 14
e 5 20
e 5 23
e 5 28
e 5 32
e 5 36
e 5 42
e 5 45
e 5 46
e 5 47
e 5 53
e 5 54
e 5 55
e 5 57
e 5 60
e 5 62
e 5 64
e 5 70
e 5 72
e 5 73
e 5 78
e 5 80
e 5 92
e 5 93
e 5 97
e 6 14
e 6 16
e 6 20
e 6 27
e 6 29
e 6 34
e 6 38
e 6 42
e 6 43
e 6 44
e 6 46
e 6 52
e 6 55
e 6 56
e 6 59
e 6 61
e 6 65
e 6 70
e 6 72
e 6 75
e 6 78
e 6 80
e 6 87
e 6 88
e 6 90
e 6 94
e 6 95
e 7 9
e 7 10
e 7 13
e 7 16
e 7 19
e 7 20
e 7 22
e 7 26
e 7 27
e 7 33
e 7 34
e 7 36
e 7 39
e 7 45
e 7 46
e 7 47
e 7 48
e 7 55
e 7 57
e 7 58
e 7 62
e 7 64
e 7 67
e 7 70
e 7 72
e 7 73
e 7 74
e 7 80
e 7 83
e 7 85
e 7 86
e 7 87
e 7 94
e 7 95
e 7 97
e 8 16
e 8 17
e 8 22
e 8 26
e 8 27
e 8 32
e 8 36
e 8 37
e 8 44
e 8 45
e 8 51
e 8 54
e 8 58
e 8 60
e 8 61
e 8 63
e 8 64
e 8 66
e 8 68
e 8 72
e 8 80
e 8 81
e 8 82
e 8 84
e 8 85
e 8 90
e 8 94
e 8 96
e 8 100
e 9 11
e 9 12
e 9 14
e 9 16
e 9 17
e 9 20
e 9 25
e 9 28
e 9 30
e 9 32
e 9 36
e 9 46
e 9 51
e 9 52
e 9 54
e 9 56
e 9 58
e 9 67
e 9 71
e 9 74
e 9 76
e 9 78
e 9 81
e 9 82
e 9 88
e 9 90
e 9 91
e 9 97
e 9 98
e 10 14
e 10 16
e 10 20
e 10 24
e 10 26
e 10 29
e 10 30
e 10 32
e 10 33
e 10 34
e 10 35
e 10 37
e 10 39
e 10 42
e 10 47
e 10 48
e 10 50
e 10 51
e 10 52
e 10 54
e 10 55
e 10 66
e 10 75
e 10 77
e 10 79
e 10 81
e 10 82
e 10 86
e 10 87
e 10 90
e 10 92
e 10 100
e 11 12
e 11 13
e 11 24
e 11 27
e 11 30
e 11 33
e 11 34
e 11 35
e 11 36
e 11 38
e 11 41
e 11 44
e 11 45
e 11 48
e 11 49
e 11 50
e 11 55
e 11 57
e 11 58
e 11 66
e 11 69
e 11 74
e 11 78
e 11 85
e 11 90
e 11 99
e 11 100
e 12 13
e 12 24
e 12 32
e 12 33
e 12 34
e 12 38
e 12 45
e 12 47
e 12 48
e 12 52
e 12 55
e 12 57
e 12 59
e 12 60
e 12 62
e 12 64
e 12 70
e 12 72
e 12 74
e 12 80
e 12 82
e 12 86
e 12 89
e 12 93
e 12 97
e 13 17
e 13 23
e 13 24
e 13 25
e 13 26
e 13 29
e 13 34
e 13 35
e 13 37
e 13 38
e 13 43
e 13 44
e 13 50
e 13 59
e 13 62
e 13 63
e 13 69
e 13 73
e 13 74
e 13 75
e 13 76
e 13 79
e 13 85
e 13 90
e 13 93
e 13 95
e 13 99
e 13 100
e 14 16
e 14 17
e 14 24
e 14 29
e 14 33
e 14 34
e 14 35
e 14 38
e 14 43
e 14 45
e 14 48
e 14 51
e 14 54
e 14 55
e 14 57
e 14 61
e 14 62
e 14 63
e 14 68
e 14 76
e 14 77
e 14 78
e 14 79
e 14 80
e 14 83
e 14 86
e 14 88
e 14 98
e 14 100
e 15 21
e 15 22
e 15 24
e 15 29
e 15 31
e 15 33
e 15 34
e 15 38
e 15 39
e 15 40
e 15 44
e 15 48
e 15 54
e 15 57
e 15 58
e 15 59
e 15 63
e 15 64
e 15 65
e 15 69
e 15 72
e 15 74
e 15 77
e 15 79
e 15 80
e 15 82
e 15 87
e 15 88
e 15 95
e 16 18
e 16 23
e 16 28
e 16 29
e 16 35
e 16 36
e 16 41
e 16 42
e 16 45
e 16 51
e 16 52
e 16 54
e 16 58
e 16 59
e 16 69
e 16 72
e 16 76
e 16 77
e 16 79
e 16 82
e 16 86
e 16 90
e 16 91
e 16 93
e 16 96
e 16 98
e 17 20
e 17 23
e 17 27
e 17 29
e 17 33
e 17 35
e 17 43
e 17 52
e 17 54
e 17 60
e 17 63
e 17 64
e 17 72
e 17 73
e 17 74
e 17 79
e 17 80
e 17 82
e 17 84
e 17 88
e 17 89
e 17 90
e 17 93
e 17 96
e 17 98
e 18 19
e 18 21
e 18 24
e 18 27
e 18 29
e 18 30
e 18 31
e 18 33
e 18 34
e 18 37
e 18 40
e 18 42
e 18 44
e 18 45
e 18 50
e 18 53
e 18 56
e 18 62
e 18 63
e 18 64
e 18 65
e 18 70
e 18 72
e 18 73
e 18 76
e 18 79
e 18 90
e 18 91
e 18 92
e 18 93
e 18 94
e 18 95
e 18 96
e 18 97
e 18 98
e 18 100
e 19 23
e 19 24
e 19 27
e 19 28
e 19 30
e 19 34
e 19 36
e 19 38
e 19 41
e 19 43
e 19 50
e 19 54
e 19 60
e 19 62
e 19 67
e 19 70
e 19 74
e 19 76
e 19 82
e 19 87
e 19 89
e 19 90
e 19 91
e 19 92
e 19 100
e 20 21
e 20 24
e 20 29
e 20 32
e 20 36
e 20 41
e 20 46
e 20 52
e 20 54
e 20 63
e 20 66
e 20 67
e 20 68
e 20 71
e 20 74
e 20 82
e 20 83
e 20 84
e 20 88
e 20 92
e 20 95
e 20 98
e 21 23
e 21 24
e 21 27
e 21 29
e 21 31
e 21 32
e 21 36
e 21 38
e 21 42
e 21 44
e 21 47
e 21 48
e 21 50
e 21 54
e 21 57
e 21 66
e 21 71
e 21 73
e 21 74
e 21 76
e 21 77
e 21 80
e 21 81
e 21 83
e 21 85
e 21 87
e 21 89
e 21 91
e 21 95
e 21 98
e 21 99
e 22 25
e 22 27
e 22 28
e 22 40
e 22 42
e 22 43
e 22 44
e 22 45
e 22 47
e 22 48
e 22 50
e 22 52
e 22 55
e 22 68
e 22 72
e 22 76
e 22 77
e 22 81
e 22 91
e 22 93
e 22 97
e 22 98
e 22 100
e 23 28
e 23 29
e 23 30
e 23 36
e 23 37
e 23 38
e 23 41
e 23 49
e 23 50
e 23 53
e 23 57
e 23 58
e 23 60
e 23 61
e 23 63
e 23 65
e 23 67
e 23 84
e 23 87
e 23 88
e 23 92
e 23 93
e 23 95
e 24 25
e 24 26
e 24 28
e 24 33
e 24 34
e 24 36
e 24 37
e 24 38
e 24 40
e 24 41
e 24 44
e 24 45
e 24 46
e 24 47
e 24 49
e 24 51
e 24 54
e 24 59
e 24 60
e 24 61
e 24 64
e 24 66
e 24 68
e 24 71
e 24 72
e 24 74
e 24 81
e 24 84
e 24 85
e 24 89
e 24 91
e 24 96
e 24 98
e 24 99
e 24 100
e 25 28
e 25 30
e 25 31
e 25 34
e 25 37
e 25 40
e 25 43
e 25 46
e 25 47
e 25 49
e 25 67
e 25 71
e 25 75
e 25 78
e 25 83
e 25 85
e 25 87
e 25 89
e 25 90
e 25 93
e 25 95
e 25 97
e 26 32
e 26 34
e 26 35
e 26 37
e 26 39
e 26 40
e 26 42
e 26 44
e 26 45
e 26 51
e 26 52
e 26 55
e 26 56
e 26 67
e 26 74
e 26 75
e 26 76
e 26 77
e 26 78
e 26 84
e 26 85
e 26 86
e 26 87
e 26 89
e 26 92
e 26 95
e 26 98
e 26 99
e 27 28
e 27 32
e 27 33
e 27 34
e 27 42
e 27 48
e 27 49
e 27 53
e 27 56
e 27 59
e 27 61
e 27 64
e 27 74
e 27 75
e 27 76
e 27 89
e 27 93
e 27 98
e 28 42
e 28 45
e 28 46
e 28 47
e 28 49
e 28 54
e 28 56
e 28 61
e 28 62
e 28 63
e 28 67
e 28 71
e 28 72
e 28 80
e 28 82
e 28 84
e 28 87
e 28 88
e 28 90
e 28 95
e 28 98
e 28 99
e 29 30
e 29 34
e 29 35
e 29 36
e 29 38
e 29 44
e 29 47
e 29 48
e 29 49
e 29 51
e 29 52
e 29 53
e 29 61
e 29 66
e 29 77
e 29 85
e 29 87
e 29 91
e 29 92
e 29 96
e 30 33
e 30 35
e 30 36
e 30 42
e 30 45
e 30 54
e 30 61
e 30 62
e 30 68
e 30 72
e 30 74
e 30 79
e 30 81
e 30 83
e 30 85
e 30 87
e 30 89
e 30 90
e 30 93
e 30 94
e 30 95
e 31 35
e 31 37
e 31 40
e 31 43
e 31 44
e 31 47
e 31 50
e 31 51
e 31 55
e 31 56
e 31 60
e 31 62
e 31 68
e 31 69
e 31 73
e 31 75
e 31 77
e 31 80
e 31 82
e 31 90
e 31 94
e 31 98
e 31 99
e 32 35
e 32 40
e 32 41
e 32 50
e 32 51
e 32 52
e 32 59
e 32 60
e 32 63
e 32 70
e 32 73
e 32 75
e 32 83
e 32 92
e 32 93
e 32 94
e 32 97
e 33 34
e 33 38
e 33 39
e 33 40
e 33 41
e 33 49
e 33 50
e 33 51
e 33 52
e 33 53
e 33 54
e 33 55
e 33 62
e 33 65
e 33 66
e 33 69
e 33 75
e 33 77
e 33 84
e 33 86
e 33 87
e 33 88
e 33 90
e 33 91
e 33 92
e 33 96
e 33 99
e 34 35
e 34 37
e 34 40
e 34 41
e 34 44
e 34 46
e 34 47
e 34 67
e 34 70
e 34 75
e 34 76
e 34 78
e 34 88
e 34 98
e 35 37
e 35 40
e 35 46
e 35 47
e 35 48
e 35 50
e 35 53
e 35 59
e 35 62
e 35 68
e 35 69
e 35 76
e 35 78
e 35 80
e 35 83
e 35 88
e 35 89
e 35 90
e 35 92
e 35 99
e 36 38
e 36 43
e 36 47
e 36 48
e 36 57
e 36 58
e 36 61
e 36 70
e 36 73
e 36 78
e 36 79
e 36 89
e 36 90
e 36 93
e 36 96
e 36 99
e 37 53
e 37 57
e 37 72
e 37 76
e 37 79
e 37 82
e 37 91
e 37 92
e 37 93
e 38 44
e 38 47
e 38 50
e 38 52
e 38 64
e 38 65
e 38 72
e 38 73
e 38 76
e 38 78
e 38 79
e 38 83
e 38 90
e 38 97
e 39 42
e 39 44
e 39 48
e 39 52
e 39 54
e 39 56
e 39 57
e 39 58
e 39 66
e 39 70
e 39 74
e 39 81
e 39 83
e 39 84
e 39 85
e 39 91
e 39 95
e 39 100
e 40 47
e 40 51
e 40 53
e 40 60
e 40 62
e 40 64
e 40 65
e 40 68
e 40 69
e 40 75
e 40 78
e 40 85
e 40 86
e 40 90
e 40 92
e 40 99
e 40 100
e 41 42
e 41 52
e 41 54
e 41 55
e 41 59
e 41 61
e 41 64
e 41 73
e 41 75
e 41 79
e 41 85
e 41 86
e 41 91
e 41 92
e 41 98
e 42 43
e 42 52
e 42 54
e 42 57
e 42 58
e 42 60
e 42 65
e 42 68
e 42 70
e 42 72
e 42 73
e 42 75
e 42 76
e 42 83
e 42 86
e 42 89
e 42 92
e 42 93
e 42 94
e 43 47
e 43 50
e 43 52
e 43 59
e 43 60
e 43 62
e 43 66
e 43 67
e 43 68
e 43 69
e 43 70
e 43 72
e 43 74
e 43 75
e 43 79
e 43 90
e 43 93
e 43 94
e 43 96
e 44 49
e 44 55
e 44 58
e 44 59
e 44 60
e 44 63
e 44 64
e 44 65
e 44 69
e 44 74
e 44 75
e 44 76
e 44 83
e 44 88
e 44 94
e 44 97
e 45 46
e 45 49
e 45 50
e 45 59
e 45 61
e 45 69
e 45 70
e 45 72
e 45 74
e 45 77
e 45 78
e 45 83
e 45 89
e 45 97
e 45 100
e 46 49
e 46 53
e 46 59
e 46 63
e 46 64
e 46 67
e 46 71
e 46 72
e 46 74
e 46 75
e 46 85
e 46 87
e 46 88
e 46 91
e 46 92
e 46 98
e 46 100
e 47 48
e 47 54
e 47 58
e 47 63
e 47 67
e 47 70
e 47 71
e 47 72
e 47 76
e 47 78
e 47 83
e 47 85
e 47 87
e 47 88
e 47 90
e 47 91
e 47 92
e 47 95
e 47 97
e 48 51
e 48 52
e 48 60
e 48 63
e 48 65
e 48 67
e 48 70
e 48 71
e 48 72
e 48 73
e 48 74
e 48 77
e 48 78
e 48 84
e 48 87
e 48 89
e 48 93
e 48 94
e 48 96
e 48 99
e 49 52
e 49 60
e 49 63
e 49 66
e 49 68
e 49 71
e 49 74
e 49 75
e 49 92
e 49 94
e 50 55
e 50 72
e 50 74
e 50 75
e 50 79
e 50 85
e 50 94
e 51 53
e 51 54
e 51 55
e 51 56
e 51 57
e 51 59
e 51 63
e 51 65
e 51 82
e 51 83
e 51 87
e 51 88
e 51 93
e 51 94
e 51 96
e 51 98
e 52 55
e 52 58
e 52 61
e 52 62
e 52 63
e 52 70
e 52 73
e 52 74
e 52 84
e 52 88
e 52 90
e 52 92
e 52 100
e 53 58
e 53 59
e 53 67
e 53 68
e 53 69
e 53 74
e 53 84
e 53 86
e 53 91
e 53 95
e 54 56
e 54 64
e 54 65
e 54 66
e 54 71
e 54 77
e 54 90
e 54 94
e 54 98
e 55 69
e 55 72
e 55 78
e 55 80
e 55 82
e 55 84
e 55 86
e 55 96
e 55 97
e 55 98
e 56 57
e 56 67
e 56 72
e 56 74
e 56 75
e 56 76
e 56 82
e 56 84
e 56 85
e 56 86
e 56 87
e 56 91
e 56 94
e 56 95
e 56 96
e 56 97
e 56 98
e 56 100
e 57 59
e 57 60
e 57 62
e 57 66
e 57 67
e 57 68
e 57 71
e 57 72
e 57 76
e 57 80
e 57 81
e 57 89
e 57 91
e 57 92
e 57 94
e 57 98
e 57 99
e 58 59
e 58 60
e 58 67
e 58 82
e 58 87
e 58 89
e 58 91
e 58 92
e 58 95
e 59 62
e 59 72
e 59 73
e 59 75
e 59 77
e 59 81
e 59 83
e 59 86
e 59 90
e 59 97
e 60 61
e 60 67
e 60 80
e 60 90
e 60 91
e 60 94
e 60 96
e 60 97
e 60 98
e 61 62
e 61 63
e 61 66
e 61 68
e 61 69
e 61 71
e 61 74
e 61 77
e 61 79
e 61 80
e 61 83
e 61 86
e 61 92
e 62 63
e 62 65
e 62 69
e 62 73
e 62 74
e 62 76
e 62 80
e 62 81
e 62 87
e 62 90
e 62 92
e 62 95
e 62 99
e 63 66
e 63 77
e 63 81
e 63 85
e 63 86
e 63 89
e 63 93
e 63 94
e 63 95
e 64 65
e 64 68
e 64 71
e 64 72
e 64 73
e 64 79
e 64 80
e 64 85
e 64 88
e 64 90
e 64 92
e 64 93
e 64 94
e 64 97
e 64 98
e 65 68
e 65 69
e 65 73
e 65 81
e 65 84
e 65 88
e 65 92
e 65 93
e 65 94
e 65 97
e 65 98
e 65 99
e 65 100
e 66 67
e 66 70
e 66 76
e 66 78
e 66 83
e 66 86
e 66 90
e 67 72
e 67 74
e 67 78
e 67 79
e 67 90
e 67 92
e 67 98
e 67 99
e 68 69
e 68 70
e 68 72
e 68 74
e 68 81
e 68 91
e 68 97
e 68 99
e 69 71
e 69 72
e 69 73
e 69 78
e 69 80
e 69 87
e 69 95
e 69 96
e 70 74
e 70 81
e 70 84
e 70 86
e 70 89
e 70 97
e 70 99
e 70 100
e 71 72
e 71 73
e 71 80
e 71 81
e 71 92
e 71 93
e 71 96
e 71 100
e 72 80
e 72 82
e 72 83
e 72 84
e 72 90
e 72 96
e 72 100
e 73 77
e 73 78
e 73 95
e 73 99
e 73 100
e 74 77
e 74 80
e 74 85
e 74 86
e 74 88
e 74 89
e 74 90
e 74 91
e 74 92
e 74 97
e 75 86
e 75 94
e 75 99
e 75 100
e 76 78
e 76 86
e 76 87
e 76 88
e 76 94
e 77 78
e 77 82
e 77 85
e 77 87
e 77 91
e 77 92
e 77 95
e 77 98
e 77 99
e 78 80
e 78 87
e 78 90
e 78 92
e 78 95
e 78 97
e 78 98
e 78 100
e 79 86
e 79 92
e 79 93
e 79 95
e 79 99
e 79 100
e 80 87
e 80 89
e 80 91
e 80 99
e 80 100
e 81 82
e 81 86
e 81 91
e 81 94
e 81 100
e 82 83
e 82 96
e 82 100
e 83 88
e 83 94
e 84 94
e 84 97
e 85 87
e 85 91
e 85 93
e 85 94
e 85 96
e 86 88
e 86 90
e 86 91
e 86 92
e 86 93
e 86 94
e 86 97
e 86 100
e 87 90
e 87 92
e 87 93
e 87 94
e 87 96
e 88 89
e 88 91
e 88 93
e 88 94
e 88 98
e 88 100
e 89 90
e 89 93
e 89 95
e 90 92
e 90 99
e 90 100
e 91 97
e 91 98
e 92 93
e 92 95
e 92 97
e 92 98
e 93 98
e 93 100
e 94 95
e 94 96
e 94 98
e 94 99
e 94 100
e 95 99
e 95 100
e 96 97
e 96 100
e 97 99
